33D32945 STP File, STP Format Version 1.0

SECTION Comments
Name "edge_n15_d4_s10"
Problem "Euclidean Steiner Tree Problem"
Remark "Generated with STPGenerator. 4 dimensions."
END

SECTION Graph
Nodes 15
END

SECTION Coordinates
DDDD 0 0.5658107323 0.5658107323 0.5658107323 0.5658107323
DDDD 1 0.6109299178 0.6109299178 0.6109299178 0.6109299178
DDDD 2 0.5057680786 0.5057680786 0.5057680786 0.5057680786
DDDD 3 0.1796468744 0.1796468744 0.1796468744 0.1796468744
DDDD 4 0.8166862739 0.8166862739 0.8166862739 0.8166862739
DDDD 5 0.1834716542 0.1834716542 0.1834716542 0.1834716542
DDDD 6 0.5846529620 0.5846529620 0.5846529620 0.5846529620
DDDD 7 0.4221560766 0.4221560766 0.4221560766 0.4221560766
DDDD 8 0.0253341845 0.0253341845 0.0253341845 0.0253341845
DDDD 9 0.3162595943 0.3162595943 0.3162595943 0.3162595943
DDDD 10 0.0612761933 0.0612761933 0.0612761933 0.0612761933
DDDD 11 0.0836590180 0.0836590180 0.0836590180 0.0836590180
DDDD 12 0.9767909204 0.9767909204 0.9767909204 0.9767909204
DDDD 13 0.9780582851 0.9780582851 0.9780582851 0.9780582851
DDDD 14 0.8738890034 0.8738890034 0.8738890034 0.8738890034
END
